% demand
num_movements = 25;
loading_factor = [1500, 1150, 1400, 1300, 1200, 900, 1600, 950, 1350, 1600, 1250, 1500, 1600, 1050, 1700, 950, 1850, 1700, 800, 1250, 2000, 1100, 1400, 1650, 850];
pickup_time = [0, 0, 0, 0, 0, 2, 2, 3, 3, 4, 4, 4, 4, 4, 6, 6, 6, 6, 6, 7, 7, 7, 8, 8, 8];
delivery_time = [4, 1, 1, 4, 2, 3, 4, 4, 4, 5, 6, 5, 5, 5, 7, 7, 7, 7, 7, 8, 9, 9, 9, 9, 9];

% transporter definition
total_capacity = 7000;
num_decks = 3;
capacity = [3000, 1000, 3000];

% ways out of decks
num_ways_out = 1;
paths_out = array3d(decks, ways_out, decks, [
% ways out of deck d1
2, 3, 0, 

% ways out of deck d2
3, 0, 0, 

% ways out of deck d3
0, 0, 0,	

]);

